Route #1: 1 1 7 9 10 3 2 11 6 4 5 18 22 28 65 17 8 1 
Route #2: 1 87 85 83 88 51 67 45 53 26 66 84 86 82 1 
Route #3: 1 16 13 12 24 27 19 23 14 1 
Route #4: 1 94 90 95 89 92 97 98 100 76 74 56 63 38 60 1 
Route #5: 1 96 99 91 21 35 68 59 1 
Route #6: 1 20 25 15 62 52 81 78 80 57 44 47 42 1 
Route #7: 1 93 71 73 72 54 50 46 41 1 
Route #8: 1 69 33 55 36 64 43 49 48 32 34 1 
Route #9: 1 61 30 31 29 40 37 79 1 
Route #10: 1 58 77 70 1 
Route #11: 1 39 1 
Route #12: 1 75 1 

Cost 3838.96
Time 0.0604


 * Other infos *

 Iterations: 101 Time: 0.0604 sec - 0.0010 min - 0.0000 horas
0.0000 h 0.0010 min
Problem dimension: 101
